
Gurobi 10.0.2 (win64) logging started Mon Jul 10 21:29:56 2023

Set parameter LogFile to value "Outputs/Logfiles/model_moo(Jul 10,2129).log"
Gurobi Optimizer version 10.0.2 build v10.0.2rc0 (win64)

CPU model: Intel(R) Core(TM) i5-8265U CPU @ 1.60GHz, instruction set [SSE2|AVX|AVX2]
Thread count: 4 physical cores, 8 logical processors, using up to 8 threads

Optimize a model with 3567 rows, 2824 columns and 8827 nonzeros
Model fingerprint: 0x9787f29a
Variable types: 2103 continuous, 721 integer (721 binary)
Coefficient statistics:
  Matrix range     [1e+00, 2e+25]
  Objective range  [3e-02, 3e+02]
  Bounds range     [1e+00, 1e+00]
  RHS range        [1e+00, 1e+12]
Warning: Model contains large matrix coefficient range
Warning: Model contains large rhs
         Consider reformulating model or setting NumericFocus parameter
         to avoid numerical issues.

---------------------------------------------------------------------------
Multi-objectives: starting optimization with 2 objectives ... 
---------------------------------------------------------------------------

Multi-objectives: applying initial presolve ...
---------------------------------------------------------------------------

Presolve removed 2644 rows and 1402 columns
Presolve time: 0.02s
Presolved: 923 rows and 1422 columns
---------------------------------------------------------------------------

Multi-objectives: optimize objective 1 (objective_re_1) ...
---------------------------------------------------------------------------

Found heuristic solution: objective 0.0000000
Presolve removed 93 rows and 734 columns
Presolve time: 0.00s
Presolved: 830 rows, 688 columns, 2024 nonzeros
Variable types: 0 continuous, 688 integer (688 binary)
Found heuristic solution: objective -2213.012868

Root relaxation: objective -2.378438e+03, 94 iterations, 0.01 seconds (0.00 work units)

    Nodes    |    Current Node    |     Objective Bounds      |     Work
 Expl Unexpl |  Obj  Depth IntInf | Incumbent    BestBd   Gap | It/Node Time

*    0     0               0    -2378.438304 -2378.4383  0.00%     -    0s

Explored 1 nodes (94 simplex iterations) in 0.11 seconds (0.02 work units)
Thread count was 8 (of 8 available processors)

Solution count 2: -2378.44 -2213.01 
No other solutions better than -2378.44

Optimal solution found (tolerance 1.00e-04)
Best objective -2.378438304337e+03, best bound -2.378438304337e+03, gap 0.0000%
---------------------------------------------------------------------------

Multi-objectives: optimize objective 2 (objective_cost_2) ...
---------------------------------------------------------------------------


Loaded user MIP start with objective 2475

Presolve removed 197 rows and 818 columns
Presolve time: 0.03s
Presolved: 727 rows, 604 columns, 2363 nonzeros
Found heuristic solution: objective -22429.36464
Variable types: 0 continuous, 604 integer (604 binary)

Root relaxation: objective -2.717072e+04, 340 iterations, 0.01 seconds (0.00 work units)

    Nodes    |    Current Node    |     Objective Bounds      |     Work
 Expl Unexpl |  Obj  Depth IntInf | Incumbent    BestBd   Gap | It/Node Time

     0     0 -27170.723    0    2 -22429.365 -27170.723  21.1%     -    0s
H    0     0                    -27170.72328 -27170.723  0.00%     -    0s
     0     0 -27170.723    0    2 -27170.723 -27170.723  0.00%     -    0s

Explored 1 nodes (340 simplex iterations) in 0.21 seconds (0.04 work units)
Thread count was 8 (of 8 available processors)

Solution count 2: -27170.7 -22429.4 
No other solutions better than -27170.7

Optimal solution found (tolerance 1.00e-04)
Best objective -2.717072327778e+04, best bound -2.717072327778e+04, gap 0.0000%

---------------------------------------------------------------------------
Multi-objectives: solved in 0.23 seconds (0.04 work units), solution count 4


    Variable            X 
-------------------------
cover[o49,s15]            1 
cover[o156,s3]            1 
cover[o28,s1]            1 
cover[o120,s12]            1 
cover[o123,s12]            1 
cover[o114,s12]            1 
cover[o169,s2]            1 
cover[o18,s3]            1 
cover[o171,s2]            1 
cover[o224,s1]            1 
cover[o196,s1]            1 
cover[o130,s10]            1 
cover[o52,s14]            1 
cover[o153,s3]            1 
cover[o21,s4]            1 
cover[o180,s1]            1 
cover[o127,s16]            1 
cover[o208,s4]            1 
cover[o178,s2]            1 
cover[o177,s2]            1 
cover[o213,s4]            1 
cover[o186,s1]            1 
cover[o17,s12]            1 
cover[o13,s10]            1 
cover[o68,s8]            1 
cover[o188,s20]            1 
cover[o136,s10]            1 
cover[o163,s3]            1 
cover[o166,s2]            1 
cover[o111,s15]            1 
cover[o38,s2]            1 
cover[o147,s3]            1 
cover[o11,s12]            1 
cover[o82,s19]            1 
cover[o165,s2]            1 
cover[o16,s19]            1 
cover[o97,s15]            1 
cover[o176,s2]            1 
cover[o25,s1]            1 
cover[o134,s8]            1 
cover[o145,s6]            1 
cover[o100,s15]            1 
cover[o193,s4]            1 
cover[o101,s12]            1 
cover[o110,s15]            1 
cover[o204,s2]            1 
cover[o113,s12]            1 
cover[o63,s10]            1 
cover[o140,s6]            1 
cover[o202,s14]            1 
cover[o99,s15]            1 
cover[o191,s10]            1 
cover[o137,s6]            1 
cover[o222,s1]            1 
cover[o1,s10]            1 
cover[o91,s19]            1 
cover[o152,s3]            1 
cover[o112,s12]            1 
cover[o40,s2]            1 
cover[o85,s19]            1 
cover[o15,s19]            1 
cover[o179,s2]            1 
cover[o119,s12]            1 
cover[o212,s4]            1 
cover[o89,s19]            1 
cover[o198,s1]            1 
cover[o172,s2]            1 
cover[o174,s2]            1 
cover[o69,s14]            1 
cover[o117,s12]            1 
cover[o86,s19]            1 
cover[o20,s4]            1 
cover[o126,s16]            1 
cover[o43,s2]            1 
cover[o143,s6]            1 
cover[o190,s10]            1 
cover[o129,s16]            1 
cover[o155,s3]            1 
cover[o167,s2]            1 
cover[o121,s12]            1 
cover[o51,s12]            1 
cover[o148,s6]            1 
cover[o184,s1]            1 
cover[o159,s2]            1 
cover[o29,s1]            1 
cover[o181,s1]            1 
cover[o23,s1]            1 
cover[o105,s15]            1 
cover[o161,s3]            1 
cover[o94,s20]            1 
cover[o103,s12]            1 
cover[o80,s19]            1 
cover[o206,s4]            1 
cover[o118,s12]            1 
cover[o37,s2]            1 
cover[o209,s4]            1 
cover[o24,s1]            1 
cover[o154,s3]            1 
cover[o102,s12]            1 
cover[o162,s2]            1 
cover[o2,s10]            1 
cover[o197,s1]            1 
cover[o131,s12]            1 
cover[o150,s3]            1 
cover[o10,s18]            1 
cover[o142,s6]            1 
cover[o133,s8]            1 
cover[o77,s14]            1 
cover[o74,s16]            1 
cover[o132,s7]            1 
cover[o22,s1]            1 
cover[o182,s1]            1 
cover[o211,s4]            1 
cover[o72,s14]            1 
cover[o65,s10]            1 
cover[o4,s16]            1 
cover[o47,s12]            1 
cover[o46,s14]            1 
cover[o122,s12]            1 
cover[o81,s19]            1 
cover[o144,s3]            1 
cover[o221,s1]            1 
cover[o203,s20]            1 
cover[o187,s1]            1 
cover[o104,s15]            1 
cover[o219,s1]            1 
cover[o124,s12]            1 
cover[o210,s4]            1 
cover[o195,s1]            1 
cover[o194,s1]            1 
cover[o108,s12]            1 
cover[o59,s10]            1 
cover[o192,s1]            1 
cover[o220,s1]            1 
cover[o173,s2]            1 
cover[o216,s4]            1 
cover[o151,s3]            1 
cover[o64,s10]            1 
cover[o76,s14]            1 
cover[o44,s19]            1 
cover[o27,s1]            1 
cover[o214,s4]            1 
cover[o12,s15]            1 
cover[o164,s3]            1 
cover[o84,s18]            1 
cover[o7,s18]            1 
cover[o125,s12]            1 
cover[o56,s8]            1 
cover[o146,s3]            1 
cover[o109,s15]            1 
cover[o205,s4]            1 
cover[o139,s6]            1 
cover[o175,s2]            1 
cover[o78,s14]            1 
cover[o168,s2]            1 
cover[o158,s2]            1 
cover[o66,s10]            1 
cover[o57,s10]            1 
cover[o26,s1]            1 
cover[o61,s10]            1 
cover[o157,s3]            1 
cover[o115,s12]            1 
cover[o79,s16]            1 
cover[o73,s16]            1 
cover[o5,s19]            1 
cover[o87,s19]            1 
cover[o95,s20]            1 
cover[o14,s10]            1 
cover[o42,s2]            1 
cover[o19,s6]            1 
cover[o218,s4]            1 
cover[o53,s8]            1 
cover[o128,s14]            1 
cover[o9,s15]            1 
cover[o67,s8]            1 
cover[o8,s15]            1 
cover[o207,s4]            1 
cover[o60,s10]            1 
cover[o183,s1]            1 
cover[o55,s8]            1 
cover[o98,s15]            1 
cover[o160,s3]            1 
cover[o93,s20]            1 
cover[o96,s15]            1 
cover[o135,s10]            1 
cover[o149,s3]            1 
cover[o45,s10]            1 
cover[o189,s20]            1 
cover[o75,s16]            1 
cover[o90,s19]            1 
cover[o170,s2]            1 
cover[o141,s6]            1 
cover[o88,s19]            1 
cover[o223,s1]            1 
 select[s20]            1 
 select[s18]            1 
  select[s8]            1 
  select[s6]            1 
  select[s3]            1 
  select[s4]            1 
 select[s10]            1 
 select[s15]            1 
 select[s14]            1 
  select[s2]            1 
  select[s7]            1 
 select[s19]            1 
 select[s16]            1 
 select[s12]            1 
  select[s1]            1 
deploy[o49,s15,c]           31 
deploy[o49,s16,c]           31 
deploy[o49,s18,c]           31 
deploy[o156,s2,c]           31 
deploy[o156,s3,c]           31 
deploy[o156,s4,c]           31 
deploy[o156,s6,c]           31 
deploy[o28,s1,c]          110 
deploy[o120,s12,i]          157 
deploy[o123,s12,c]            5 
deploy[o114,s12,c]            5 
deploy[o169,s1,i]            7 
deploy[o18,s3,i]           37 
deploy[o18,s4,i]           37 
deploy[o171,s3,i]           37 
deploy[o130,s6,i]           37 
deploy[o130,s7,i]           37 
deploy[o130,s8,i]           37 
deploy[o130,s10,i]           37 
deploy[o130,s12,i]           37 
deploy[o52,s10,i]           37 
deploy[o52,s12,i]           37 
deploy[o52,s14,i]           37 
deploy[o52,s16,i]           37 
deploy[o153,s3,i]            7 
deploy[o153,s4,i]            7 
deploy[o153,s6,i]            7 
deploy[o21,s3,c]          110 
deploy[o21,s4,c]          110 
deploy[o127,s12,c]          110 
deploy[o127,s14,c]          110 
deploy[o127,s15,c]          110 
deploy[o127,s16,c]          110 
deploy[o208,s3,c]          110 
deploy[o208,s4,c]          110 
deploy[o178,s2,c]            5 
deploy[o177,s2,c]           31 
deploy[o213,s3,i]            7 
deploy[o213,s4,i]            7 
deploy[o17,s12,m]          100 
deploy[o17,s14,m]          100 
deploy[o17,s15,m]          100 
deploy[o13,s6,m]          100 
deploy[o13,s7,m]          100 
deploy[o13,s8,m]          100 
deploy[o13,s12,m]          100 
deploy[o68,s6,i]          157 
deploy[o68,s7,i]          157 
deploy[o68,s8,i]          157 
deploy[o68,s10,i]          157 
deploy[o188,s18,c]           31 
deploy[o188,s19,c]           31 
deploy[o188,s20,c]           31 
deploy[o136,s6,c]          110 
deploy[o136,s7,c]          110 
deploy[o136,s8,c]          110 
deploy[o136,s10,c]          110 
deploy[o136,s12,c]          110 
deploy[o163,s2,m]          100 
deploy[o163,s3,m]          100 
deploy[o163,s4,m]          100 
deploy[o166,s2,m]           20 
deploy[o166,s3,m]           20 
deploy[o166,s4,m]           20 
deploy[o111,s15,m]            2 
deploy[o111,s18,m]            2 
deploy[o111,s20,m]            2 
deploy[o147,s3,i]            7 
deploy[o147,s4,i]            7 
deploy[o147,s6,i]            7 
deploy[o147,s7,i]            7 
deploy[o11,s12,m]            2 
deploy[o11,s14,m]            2 
deploy[o11,s15,m]            2 
deploy[o82,s16,c]            5 
deploy[o82,s18,c]            5 
deploy[o82,s19,c]            5 
deploy[o82,s20,c]            5 
deploy[o165,s2,m]            2 
deploy[o16,s18,c]           31 
deploy[o16,s19,c]           31 
deploy[o16,s20,c]           31 
deploy[o97,s12,i]          157 
deploy[o97,s15,i]          157 
deploy[o97,s16,i]          157 
deploy[o25,s1,i]           37 
deploy[o134,s6,m]           20 
deploy[o134,s7,m]           20 
deploy[o134,s8,m]           20 
deploy[o134,s12,m]           20 
deploy[o145,s3,c]           31 
deploy[o145,s4,c]           31 
deploy[o145,s6,c]           31 
deploy[o145,s7,c]           31 
deploy[o100,s15,c]           31 
deploy[o100,s16,c]           31 
deploy[o100,s18,c]           31 
deploy[o193,s2,m]            2 
deploy[o193,s3,m]            2 
deploy[o193,s4,m]            2 
deploy[o101,s12,i]           37 
deploy[o101,s14,i]           37 
deploy[o110,s15,c]            5 
deploy[o110,s18,c]            5 
deploy[o110,s20,c]            5 
deploy[o204,s3,i]           37 
deploy[o204,s4,i]           37 
deploy[o113,s12,m]           20 
deploy[o63,s7,c]            5 
deploy[o63,s8,c]            5 
deploy[o63,s10,c]            5 
deploy[o63,s14,c]            5 
deploy[o140,s6,m]           20 
deploy[o140,s7,m]           20 
deploy[o140,s8,m]           20 
deploy[o202,s14,m]           20 
deploy[o202,s15,m]           20 
deploy[o202,s19,m]           20 
deploy[o99,s15,i]            7 
deploy[o99,s16,i]            7 
deploy[o99,s18,i]            7 
deploy[o191,s7,c]           31 
deploy[o191,s8,c]           31 
deploy[o191,s10,c]           31 
deploy[o191,s14,c]           31 
deploy[o137,s3,m]            2 
deploy[o137,s6,m]            2 
deploy[o137,s7,m]            2 
deploy[o222,s1,i]            7 
deploy[o1,s8,m]           20 
deploy[o1,s14,m]           20 
deploy[o91,s18,m]          100 
deploy[o91,s19,m]          100 
deploy[o91,s20,m]          100 
deploy[o152,s3,i]            7 
deploy[o152,s4,i]            7 
deploy[o152,s6,i]            7 
deploy[o152,s7,i]            7 
deploy[o112,s12,m]            2 
deploy[o40,s2,m]          100 
deploy[o40,s3,m]          100 
deploy[o85,s16,i]            7 
deploy[o85,s18,i]            7 
deploy[o85,s19,i]            7 
deploy[o85,s20,i]            7 
deploy[o15,s18,m]          100 
deploy[o15,s19,m]          100 
deploy[o15,s20,m]          100 
deploy[o179,s2,c]          110 
deploy[o119,s12,c]           31 
deploy[o212,s3,m]            2 
deploy[o212,s4,m]            2 
deploy[o212,s7,m]            2 
deploy[o89,s18,c]          110 
deploy[o89,s19,c]          110 
deploy[o89,s20,c]          110 
deploy[o198,s1,i]          157 
deploy[o172,s3,i]           37 
deploy[o174,s2,m]            2 
deploy[o174,s3,m]            2 
deploy[o69,s10,c]           31 
deploy[o69,s14,c]           31 
deploy[o69,s16,c]           31 
deploy[o117,s12,i]           37 
deploy[o86,s18,i]            7 
deploy[o86,s19,i]            7 
deploy[o86,s20,i]            7 
deploy[o20,s3,m]            2 
deploy[o20,s4,m]            2 
deploy[o126,s12,i]          157 
deploy[o126,s14,i]          157 
deploy[o126,s15,i]          157 
deploy[o126,s16,i]          157 
deploy[o43,s2,c]            5 
deploy[o43,s3,c]            5 
deploy[o143,s3,m]            2 
deploy[o143,s4,m]            2 
deploy[o143,s6,m]            2 
deploy[o143,s7,m]            2 
deploy[o190,s7,m]           20 
deploy[o190,s8,m]           20 
deploy[o190,s14,m]           20 
deploy[o129,s12,c]          110 
deploy[o129,s14,c]          110 
deploy[o129,s15,c]          110 
deploy[o129,s16,c]          110 
deploy[o155,s2,c]           31 
deploy[o155,s3,c]           31 
deploy[o155,s4,c]           31 
deploy[o155,s6,c]           31 
deploy[o167,s1,c]          110 
deploy[o167,s2,c]          110 
deploy[o121,s12,i]            7 
deploy[o51,s12,c]           31 
deploy[o51,s14,c]           31 
deploy[o51,s15,c]           31 
deploy[o51,s16,c]           31 
deploy[o148,s3,c]           31 
deploy[o148,s4,c]           31 
deploy[o148,s6,c]           31 
deploy[o148,s7,c]           31 
deploy[o159,s2,m]            2 
deploy[o159,s3,m]            2 
deploy[o159,s4,m]            2 
deploy[o29,s1,c]          110 
deploy[o181,s1,i]            7 
deploy[o23,s1,c]           31 
deploy[o23,s2,c]           31 
deploy[o105,s12,m]            2 
deploy[o105,s15,m]            2 
deploy[o161,s3,i]            7 
deploy[o161,s4,i]            7 
deploy[o94,s18,c]          110 
deploy[o94,s19,c]          110 
deploy[o94,s20,c]          110 
deploy[o103,s12,i]          157 
deploy[o103,s14,i]          157 
deploy[o103,s15,i]          157 
deploy[o80,s16,c]           31 
deploy[o80,s18,c]           31 
deploy[o80,s19,c]           31 
deploy[o80,s20,c]           31 
deploy[o206,s3,i]           37 
deploy[o206,s4,i]           37 
deploy[o118,s12,c]            5 
deploy[o37,s1,c]          110 
deploy[o37,s2,c]          110 
deploy[o209,s3,i]            7 
deploy[o209,s4,i]            7 
deploy[o24,s1,c]          110 
deploy[o24,s2,c]          110 
deploy[o154,s2,m]           20 
deploy[o154,s3,m]           20 
deploy[o154,s4,m]           20 
deploy[o102,s12,i]           37 
deploy[o102,s14,i]           37 
deploy[o102,s15,i]           37 
deploy[o102,s16,i]           37 
deploy[o162,s3,i]          157 
deploy[o162,s4,i]          157 
deploy[o2,s7,c]          110 
deploy[o2,s8,c]          110 
deploy[o2,s10,c]          110 
deploy[o2,s14,c]          110 
deploy[o197,s1,i]           37 
deploy[o131,s6,i]            7 
deploy[o131,s7,i]            7 
deploy[o131,s8,i]            7 
deploy[o131,s10,i]            7 
deploy[o131,s12,i]            7 
deploy[o150,s2,c]           31 
deploy[o150,s3,c]           31 
deploy[o150,s4,c]           31 
deploy[o10,s15,m]          100 
deploy[o10,s18,m]          100 
deploy[o10,s19,m]          100 
deploy[o10,s20,m]          100 
deploy[o142,s3,i]          157 
deploy[o142,s4,i]          157 
deploy[o142,s6,i]          157 
deploy[o142,s7,i]          157 
deploy[o133,s6,m]           20 
deploy[o133,s7,m]           20 
deploy[o133,s8,m]           20 
deploy[o133,s12,m]           20 
deploy[o77,s10,i]           37 
deploy[o77,s14,i]           37 
deploy[o77,s16,i]           37 
deploy[o74,s14,c]           31 
deploy[o74,s15,c]           31 
deploy[o74,s16,c]           31 
deploy[o74,s19,c]           31 
deploy[o132,s6,m]           20 
deploy[o132,s7,m]           20 
deploy[o132,s8,m]           20 
deploy[o132,s12,m]           20 
deploy[o22,s1,i]          157 
deploy[o182,s1,i]          157 
deploy[o211,s3,m]          100 
deploy[o211,s4,m]          100 
deploy[o72,s14,c]            5 
deploy[o72,s15,c]            5 
deploy[o72,s16,c]            5 
deploy[o65,s7,i]            7 
deploy[o65,s8,i]            7 
deploy[o65,s10,i]            7 
deploy[o65,s14,i]            7 
deploy[o4,s14,m]           20 
deploy[o4,s15,m]           20 
deploy[o4,s18,m]           20 
deploy[o4,s19,m]           20 
deploy[o47,s12,i]            7 
deploy[o47,s14,i]            7 
deploy[o46,s10,c]          110 
deploy[o46,s14,c]          110 
deploy[o46,s16,c]          110 
deploy[o122,s12,c]           31 
deploy[o81,s16,i]            7 
deploy[o81,s18,i]            7 
deploy[o81,s19,i]            7 
deploy[o81,s20,i]            7 
deploy[o144,s3,c]          110 
deploy[o144,s4,c]          110 
deploy[o144,s6,c]          110 
deploy[o144,s7,c]          110 
deploy[o221,s1,i]          157 
deploy[o203,s18,m]            2 
deploy[o203,s19,m]            2 
deploy[o203,s20,m]            2 
deploy[o187,s1,i]           37 
deploy[o104,s12,m]          100 
deploy[o104,s15,m]          100 
deploy[o219,s1,i]            7 
deploy[o124,s12,m]            2 
deploy[o210,s3,c]           31 
deploy[o210,s4,c]           31 
deploy[o195,s1,i]            7 
deploy[o194,s1,c]          110 
deploy[o108,s12,c]            5 
deploy[o59,s7,c]           31 
deploy[o59,s8,c]           31 
deploy[o59,s10,c]           31 
deploy[o59,s14,c]           31 
deploy[o192,s1,i]            7 
deploy[o220,s1,c]            5 
deploy[o173,s2,c]           31 
deploy[o173,s3,c]           31 
deploy[o216,s3,c]            5 
deploy[o216,s4,c]            5 
deploy[o151,s2,m]           20 
deploy[o151,s3,m]           20 
deploy[o151,s4,m]           20 
deploy[o64,s7,c]            5 
deploy[o64,s8,c]            5 
deploy[o64,s10,c]            5 
deploy[o64,s14,c]            5 
deploy[o76,s10,c]           31 
deploy[o76,s14,c]           31 
deploy[o76,s16,c]           31 
deploy[o44,s14,c]          110 
deploy[o44,s15,c]          110 
deploy[o44,s16,c]          110 
deploy[o44,s18,c]          110 
deploy[o44,s19,c]          110 
deploy[o27,s1,i]          157 
deploy[o214,s3,m]          100 
deploy[o214,s4,m]          100 
deploy[o214,s6,m]          100 
deploy[o214,s7,m]          100 
deploy[o12,s12,i]          157 
deploy[o12,s15,i]          157 
deploy[o12,s16,i]          157 
deploy[o164,s2,c]           31 
deploy[o164,s3,c]           31 
deploy[o164,s4,c]           31 
deploy[o84,s15,c]           31 
deploy[o84,s16,c]           31 
deploy[o84,s18,c]           31 
deploy[o84,s19,c]           31 
deploy[o84,s20,c]           31 
deploy[o7,s15,i]          157 
deploy[o7,s16,i]          157 
deploy[o7,s18,i]          157 
deploy[o7,s19,i]          157 
deploy[o7,s20,i]          157 
deploy[o125,s12,i]           37 
deploy[o56,s7,c]           31 
deploy[o56,s8,c]           31 
deploy[o56,s10,c]           31 
deploy[o56,s14,c]           31 
deploy[o146,s3,m]           20 
deploy[o146,s4,m]           20 
deploy[o146,s6,m]           20 
deploy[o146,s7,m]           20 
deploy[o109,s15,m]           20 
deploy[o109,s18,m]           20 
deploy[o205,s3,i]            7 
deploy[o205,s4,i]            7 
deploy[o139,s6,m]           20 
deploy[o139,s7,m]           20 
deploy[o139,s8,m]           20 
deploy[o139,s12,m]           20 
deploy[o175,s2,m]            2 
deploy[o78,s14,c]          110 
deploy[o78,s15,c]          110 
deploy[o78,s16,c]          110 
deploy[o78,s19,c]          110 
deploy[o168,s3,i]           37 
deploy[o158,s2,m]            2 
deploy[o158,s3,m]            2 
deploy[o158,s4,m]            2 
deploy[o66,s7,c]            5 
deploy[o66,s8,c]            5 
deploy[o66,s10,c]            5 
deploy[o66,s14,c]            5 
deploy[o57,s7,m]           20 
deploy[o57,s8,m]           20 
deploy[o57,s14,m]           20 
deploy[o26,s1,i]          157 
deploy[o61,s7,c]           31 
deploy[o61,s8,c]           31 
deploy[o61,s10,c]           31 
deploy[o61,s14,c]           31 
deploy[o157,s2,c]           31 
deploy[o157,s3,c]           31 
deploy[o157,s4,c]           31 
deploy[o157,s6,c]           31 
deploy[o115,s12,m]          100 
deploy[o79,s14,c]           31 
deploy[o79,s15,c]           31 
deploy[o79,s16,c]           31 
deploy[o79,s18,c]           31 
deploy[o79,s19,c]           31 
deploy[o73,s14,m]          100 
deploy[o73,s15,m]          100 
deploy[o73,s19,m]          100 
deploy[o5,s18,c]          110 
deploy[o5,s19,c]          110 
deploy[o5,s20,c]          110 
deploy[o87,s19,c]          110 
deploy[o87,s20,c]          110 
deploy[o95,s18,i]           37 
deploy[o95,s19,i]           37 
deploy[o95,s20,i]           37 
deploy[o14,s8,m]            2 
deploy[o14,s14,m]            2 
deploy[o42,s2,c]            5 
deploy[o19,s3,i]           37 
deploy[o19,s6,i]           37 
deploy[o19,s7,i]           37 
deploy[o218,s3,c]          110 
deploy[o218,s4,c]          110 
deploy[o218,s6,c]          110 
deploy[o218,s7,c]          110 
deploy[o53,s7,c]          110 
deploy[o53,s8,c]          110 
deploy[o53,s10,c]          110 
deploy[o128,s12,c]            5 
deploy[o128,s14,c]            5 
deploy[o128,s15,c]            5 
deploy[o128,s16,c]            5 
deploy[o9,s12,m]           20 
deploy[o9,s15,m]           20 
deploy[o67,s6,i]          157 
deploy[o67,s7,i]          157 
deploy[o67,s8,i]          157 
deploy[o67,s10,i]          157 
deploy[o8,s12,c]            5 
deploy[o8,s15,c]            5 
deploy[o8,s16,c]            5 
deploy[o207,s3,m]          100 
deploy[o207,s4,m]          100 
deploy[o60,s8,m]            2 
deploy[o60,s14,m]            2 
deploy[o183,s1,c]           31 
deploy[o55,s7,c]           31 
deploy[o55,s8,c]           31 
deploy[o55,s10,c]           31 
deploy[o98,s15,c]          110 
deploy[o98,s16,c]          110 
deploy[o98,s18,c]          110 
deploy[o160,s2,c]           31 
deploy[o160,s3,c]           31 
deploy[o160,s4,c]           31 
deploy[o93,s18,c]          110 
deploy[o93,s19,c]          110 
deploy[o93,s20,c]          110 
deploy[o96,s12,m]            2 
deploy[o96,s15,m]            2 
deploy[o135,s6,c]            5 
deploy[o135,s7,c]            5 
deploy[o135,s8,c]            5 
deploy[o135,s10,c]            5 
deploy[o135,s12,c]            5 
deploy[o149,s3,m]          100 
deploy[o149,s4,m]          100 
deploy[o149,s6,m]          100 
deploy[o149,s7,m]          100 
deploy[o45,s8,c]          110 
deploy[o45,s10,c]          110 
deploy[o45,s14,c]          110 
deploy[o189,s18,i]           37 
deploy[o189,s19,i]           37 
deploy[o189,s20,i]           37 
deploy[o75,s14,c]           31 
deploy[o75,s15,c]           31 
deploy[o75,s16,c]           31 
deploy[o75,s18,c]           31 
deploy[o75,s19,c]           31 
deploy[o90,s19,c]          110 
deploy[o90,s20,c]          110 
deploy[o170,s3,i]          157 
deploy[o141,s6,m]            2 
deploy[o141,s7,m]            2 
deploy[o141,s8,m]            2 
deploy[o88,s18,m]          100 
deploy[o88,s19,m]          100 
deploy[o88,s20,m]          100 
deploy[o223,s1,c]           31 
